51455706761156603575013,7,1,2,011,2,1,2,02,5,1,2,010,15,1,2,013,11,1,2,08,8,1,2,013,1,1,2,013,12,1,2,011,1,1,2,02,1,1,2,015,4,1,2,04,6,1,2,01,9,1,2,02,1,1,2,01,9,1,2,09,15,1,2,014,3,1,2,03,14,1,2,07,14,1,2,09,9,1,2,03,6,1,2,013,7,1,2,014,13,1,2,010,5,1,2,014,4,1,2,06,7,1,2,08,6,1,2,08,14,1,2,011,15,1,2,014,15,1,2,06,14,1,2,011,7,1,2,09,7,1,2,010,11,1,2,06,15,1,2,09,14,1,2,015,13,1,2,07,1,1,2,010,1,1,2,05,7,1,2,012,15,1,2,08,10,1,2,02,10,1,2,06,15,1,2,02,14,1,2,07,3,1,2,02,9,1,2,010,5,1,2,09,7,1,2,03,7,1,2,0